
Gurobi 10.0.0 (win64) logging started Thu Jun 13 12:39:00 2024

Set parameter LogFile to value "C:\Users\ealvarezq\Documents\GitHub\Comillas\Models\JointResearch\05. Models\06.Benchmarking\E.Representative_days_based_on_Line_Benefits_OptModel\RTS24_mod2_ByStages_nc150/openStarNet_RTS24_mod2_ByStages_nc150.log"
Set parameter Method to value 2
Set parameter MIPFocus to value 1
Set parameter Presolve to value 2
Set parameter RINS to value 100
Set parameter MIPGap to value 0.01
Set parameter Threads to value 9
Set parameter TimeLimit to value 259200
Set parameter IterationLimit to value 760000000
Gurobi Optimizer version 10.0.0 build v10.0.0rc2 (win64)

CPU model: Intel(R) Core(TM) i7-8700 CPU @ 3.20GHz, instruction set [SSE2|AVX|AVX2]
Thread count: 6 physical cores, 12 logical processors, using up to 9 threads

Optimize a model with 53253 rows, 35910 columns and 145032 nonzeros
Model fingerprint: 0x33d904ca
Variable types: 35889 continuous, 21 integer (21 binary)
Coefficient statistics:
  Matrix range     [1e-03, 7e+02]
  Objective range  [1e+00, 1e+00]
  Bounds range     [3e-05, 3e+00]
  RHS range        [3e-05, 3e+00]
Presolve removed 31697 rows and 18175 columns
Presolve time: 0.21s
Presolved: 21556 rows, 17735 columns, 77802 nonzeros
Variable types: 17714 continuous, 21 integer (21 binary)
Root relaxation presolved: 21556 rows, 17735 columns, 77802 nonzeros

Root barrier log...

Ordering time: 0.01s

Barrier statistics:
 Dense cols : 21
 AA' NZ     : 1.445e+05
 Factor NZ  : 4.143e+05 (roughly 20 MB of memory)
 Factor Ops : 8.500e+06 (less than 1 second per iteration)
 Threads    : 8

                  Objective                Residual
Iter       Primal          Dual         Primal    Dual     Compl     Time
   0   6.62924203e+05 -1.23140614e+08  5.28e+00 2.82e+02  6.86e+03     0s
   1   9.85797818e+04 -3.19929508e+07  6.87e-01 4.18e-09  9.53e+02     0s
   2   3.69303414e+04 -6.83088160e+06  1.77e-01 2.20e-09  1.70e+02     0s
   3   1.60161197e+04 -1.30348263e+06  4.59e-03 3.42e-10  2.65e+01     0s
   4   8.04389464e+03 -1.27685930e+05  3.99e-13 3.35e-11  2.70e+00     0s
   5   1.82893533e+03 -3.33118593e+04  3.27e-13 8.22e-12  7.00e-01     0s
   6   9.26258361e+02 -8.60322074e+03  2.70e-13 2.01e-12  1.90e-01     0s
   7   5.07899731e+02 -3.02316912e+03  1.47e-13 8.21e-13  7.03e-02     0s
   8   2.38242543e+02 -9.53044948e+02  1.55e-13 1.38e-12  2.37e-02     0s
   9   1.21642629e+02 -2.64198594e+02  1.20e-13 1.04e-12  7.68e-03     0s
  10   9.97264508e+01 -8.46409876e+01  1.07e-13 9.64e-13  3.67e-03     0s
  11   8.22765177e+01 -6.24731110e+01  1.96e-13 1.52e-12  2.88e-03     0s
  12   7.42097574e+01 -2.05010946e+01  2.01e-13 9.36e-13  1.89e-03     0s
  13   6.79432968e+01  1.42118405e+01  2.70e-13 1.01e-12  1.07e-03     0s
  14   5.73869890e+01  2.59069376e+01  2.44e-12 1.22e-12  6.27e-04     0s
  15   5.22747352e+01  3.35290972e+01  1.12e-11 1.18e-12  3.73e-04     1s
  16   4.84700254e+01  3.54089871e+01  7.86e-12 1.16e-12  2.60e-04     1s
  17   4.70016935e+01  4.08692134e+01  9.70e-12 9.14e-13  1.22e-04     1s
  18   4.60796012e+01  4.20105332e+01  7.91e-12 7.68e-13  8.10e-05     1s
  19   4.51577435e+01  4.29550345e+01  1.22e-11 8.85e-13  4.39e-05     1s
  20   4.43301492e+01  4.34222558e+01  4.25e-11 1.22e-12  1.81e-05     1s
  21   4.41247347e+01  4.36554437e+01  2.93e-11 7.14e-13  9.34e-06     1s
  22   4.39860637e+01  4.37321193e+01  8.09e-11 1.07e-12  5.06e-06     1s
  23   4.39671320e+01  4.37362988e+01  1.04e-10 1.37e-12  4.60e-06     1s
  24   4.39249747e+01  4.37793760e+01  8.68e-11 8.39e-13  2.90e-06     1s
  25   4.38609166e+01  4.38015482e+01  7.32e-11 1.08e-12  1.18e-06     1s
  26   4.38561038e+01  4.38137898e+01  6.20e-11 7.03e-13  8.42e-07     1s
  27   4.38486598e+01  4.38297681e+01  6.64e-11 9.45e-13  3.76e-07     1s
  28   4.38417857e+01  4.38360209e+01  7.25e-11 1.08e-12  1.15e-07     1s
  29   4.38391299e+01  4.38379756e+01  9.61e-11 1.36e-12  2.30e-08     1s
  30   4.38388038e+01  4.38384834e+01  3.82e-11 9.77e-13  6.38e-09     1s
  31   4.38387054e+01  4.38386166e+01  5.87e-11 7.67e-13  1.77e-09     1s
  32   4.38386674e+01  4.38386536e+01  1.28e-10 1.33e-12  2.74e-10     1s
  33   4.38386668e+01  4.38386651e+01  7.14e-09 8.15e-12  3.42e-11     1s
  34   4.38386665e+01  4.38386662e+01  2.89e-08 1.40e-12  5.82e-12     1s

Barrier solved model in 34 iterations and 0.70 seconds (0.62 work units)
Optimal objective 4.38386665e+01


Root relaxation: objective 4.383867e+01, 2997 iterations, 0.59 seconds (0.52 work units)

    Nodes    |    Current Node    |     Objective Bounds      |     Work
 Expl Unexpl |  Obj  Depth IntInf | Incumbent    BestBd   Gap | It/Node Time

     0     0   43.83867    0   15          -   43.83867      -     -    1s
H    0     0                      73.6299576   43.83867  40.5%     -    1s
     0     0   44.22395    0   12   73.62996   44.22395  39.9%     -    2s
H    0     0                      66.2211052   44.22395  33.2%     -    2s
     0     0   44.22395    0   12   66.22111   44.22395  33.2%     -    2s
     0     0   44.39612    0   14   66.22111   44.39612  33.0%     -    3s
     0     0   44.45627    0   12   66.22111   44.45627  32.9%     -    3s
     0     0   44.61991    0   11   66.22111   44.61991  32.6%     -    4s
     0     0   44.65278    0   11   66.22111   44.65278  32.6%     -    4s
     0     0   44.75374    0   13   66.22111   44.75374  32.4%     -    5s
H    0     0                      57.9480976   44.75374  22.8%     -    5s
     0     0   45.39201    0   12   57.94810   45.39201  21.7%     -    5s
     0     0   45.61404    0   13   57.94810   45.61404  21.3%     -    6s
H    0     0                      56.7693340   45.61404  19.7%     -   31s
     0     2   45.61404    0   13   56.76933   45.61404  19.7%     -   31s
    24    30   45.84130    5   12   56.76933   45.84130  19.2%  1079   35s
    82    74   54.19556   10   11   56.76933   45.84166  19.2%  1016   40s
    95    78   52.98978   11   10   56.76933   45.84166  19.2%   953   45s
   170    90   48.00958    7   13   56.76933   46.39878  18.3%   868   50s
   245   111   53.07521   11   10   56.76933   46.39878  18.3%   811   55s
   345   121   51.82857    8   11   56.76933   47.45724  16.4%   748   60s
   457   127   50.61521    8   13   56.76933   49.70446  12.4%   718   65s
   604   131     cutoff   14        56.76933   49.89027  12.1%   664   72s
   686   127     cutoff   13        56.76933   49.99576  11.9%   649   76s
   782   128   53.65695   11   10   56.76933   52.12306  8.18%   635   83s
   792   130   55.54844   12    9   56.76933   52.12306  8.18%   640   97s
   912    81     cutoff    6        56.76933   53.45738  5.83%   614  101s

Cutting planes:
  Gomory: 1
  Implied bound: 97
  MIR: 534
  Relax-and-lift: 101

Explored 1162 nodes (631470 simplex iterations) in 103.51 seconds (131.04 work units)
Thread count was 9 (of 12 available processors)

Solution count 4: 56.7693 57.9481 66.2211 73.63 

Optimal solution found (tolerance 1.00e-02)
Best objective 5.676933403046e+01, best bound 5.676933403046e+01, gap 0.0000%

Gurobi 10.0.0 (win64) logging started Thu Jun 13 12:41:01 2024

Set parameter LogFile to value "C:\Users\ealvarezq\Documents\GitHub\Comillas\Models\JointResearch\05. Models\06.Benchmarking\E.Representative_days_based_on_Line_Benefits_OptModel\RTS24_mod2_ByStages_nc150/openStarNet_RTS24_mod2_ByStages_nc150.log"
Set parameter Method to value 2
Set parameter MIPFocus to value 1
Set parameter Presolve to value 2
Set parameter RINS to value 100
Set parameter MIPGap to value 0.01
Set parameter Threads to value 9
Set parameter TimeLimit to value 259200
Set parameter IterationLimit to value 760000000
Gurobi Optimizer version 10.0.0 build v10.0.0rc2 (win64)

CPU model: Intel(R) Core(TM) i7-8700 CPU @ 3.20GHz, instruction set [SSE2|AVX|AVX2]
Thread count: 6 physical cores, 12 logical processors, using up to 9 threads

Optimize a model with 53253 rows, 35889 columns and 132411 nonzeros
Model fingerprint: 0xe2381fb7
Coefficient statistics:
  Matrix range     [1e-03, 7e+02]
  Objective range  [1e+00, 1e+00]
  Bounds range     [3e-05, 3e+00]
  RHS range        [3e-05, 1e+01]
Presolve removed 44855 rows and 20771 columns
Presolve time: 0.07s
Presolved: 8398 rows, 15552 columns, 38068 nonzeros

Ordering time: 0.00s

Barrier statistics:
 AA' NZ     : 2.078e+04
 Factor NZ  : 7.638e+04 (roughly 8 MB of memory)
 Factor Ops : 1.054e+06 (less than 1 second per iteration)
 Threads    : 9

                  Objective                Residual
Iter       Primal          Dual         Primal    Dual     Compl     Time
   0   3.41495968e+06 -5.59727414e+07  5.64e+01 1.52e+02  2.94e+04     0s
   1   1.83524440e+05 -3.73482481e+07  2.62e+00 2.73e-12  2.53e+03     0s
   2   3.93589398e+04 -8.95415959e+06  3.77e-01 7.73e-12  4.29e+02     0s
   3   2.03893610e+04 -1.03134737e+06  2.67e-02 2.27e-12  4.16e+01     0s
   4   9.23487825e+03 -2.26626677e+05  1.35e-03 1.36e-12  8.89e+00     0s
   5   3.11794745e+03 -3.18855017e+04  7.71e-05 9.09e-13  1.32e+00     0s
   6   1.24139250e+03 -7.88643718e+03  3.94e-06 3.80e-13  3.43e-01     0s
   7   6.83246688e+02 -2.83576121e+03  1.00e-06 1.06e-12  1.32e-01     0s
   8   3.66777304e+02 -1.42161361e+03  4.15e-07 6.09e-13  6.72e-02     0s
   9   1.47244821e+02 -2.57313774e+02  8.75e-08 1.33e-12  1.52e-02     0s
  10   7.81519649e+01  6.01100797e+00  1.27e-08 4.05e-13  2.71e-03     0s
  11   6.45245266e+01  4.27302353e+01  3.87e-09 4.09e-13  8.19e-04     0s
  12   5.94903647e+01  5.15851641e+01  1.23e-09 7.64e-13  2.97e-04     0s
  13   5.79765393e+01  5.48654476e+01  5.03e-10 4.70e-13  1.17e-04     0s
  14   5.72543496e+01  5.59525909e+01  1.92e-10 4.81e-13  4.89e-05     0s
  15   5.69629138e+01  5.64117583e+01  7.35e-11 3.91e-13  2.07e-05     0s
  16   5.68156104e+01  5.66974509e+01  3.54e-11 4.58e-13  4.44e-06     0s
  17   5.67835458e+01  5.67542682e+01  5.29e-11 4.63e-13  1.10e-06     0s
  18   5.67702232e+01  5.67677535e+01  1.01e-10 5.36e-13  9.28e-08     0s
  19   5.67693422e+01  5.67692803e+01  4.74e-11 1.13e-12  2.33e-09     0s
  20   5.67693340e+01  5.67693340e+01  5.32e-11 6.73e-13  2.76e-12     0s
  21   5.67693340e+01  5.67693340e+01  1.74e-12 4.56e-13  1.99e-17     0s

Barrier solved model in 21 iterations and 0.21 seconds (0.17 work units)
Optimal objective 5.67693340e+01

Crossover log...

    1684 DPushes remaining with DInf 0.0000000e+00                 0s
       0 DPushes remaining with DInf 0.0000000e+00                 0s

     610 PPushes remaining with PInf 0.0000000e+00                 0s
       0 PPushes remaining with PInf 0.0000000e+00                 0s

  Push phase complete: Pinf 0.0000000e+00, Dinf 1.0493836e-13      0s

Iteration    Objective       Primal Inf.    Dual Inf.      Time
     656    5.6769334e+01   0.000000e+00   0.000000e+00      0s

Use crossover to convert LP symmetric solution to basic solution...
Crossover log...

       0 DPushes remaining with DInf 0.0000000e+00                 0s

     305 PPushes remaining with PInf 0.0000000e+00                 0s
       0 PPushes remaining with PInf 0.0000000e+00                 0s

  Push phase complete: Pinf 0.0000000e+00, Dinf 1.1666242e-13      0s

Iteration    Objective       Primal Inf.    Dual Inf.      Time
    1023    5.6769334e+01   0.000000e+00   0.000000e+00      0s

Solved in 1023 iterations and 0.32 seconds (0.21 work units)
Optimal objective  5.676933403e+01
